c Grafo no formato DIMACS 
p edge 50 100 
e 1 50 
e 1 30 
e 1 23 
e 1 13 
e 2 43 
e 2 9 
e 2 4 
e 3 45 
e 3 32 
e 3 24 
e 3 18 
e 4 47 
e 4 41 
e 4 27 
e 4 21 
e 4 10 
e 4 9 
e 5 39 
e 5 36 
e 5 16 
e 6 46 
e 6 45 
e 6 28 
e 6 25 
e 7 48 
e 7 37 
e 7 25 
e 7 14 
e 8 38 
e 8 27 
e 8 21 
e 9 34 
e 9 31 
e 9 30 
e 9 28 
e 9 12 
e 10 36 
e 10 30 
e 10 25 
e 10 18 
e 11 50 
e 11 48 
e 11 46 
e 11 28 
e 12 46 
e 12 40 
e 13 49 
e 13 43 
e 13 30 
e 13 26 
e 15 21 
e 16 44 
e 16 38 
e 16 23 
e 17 39 
e 17 38 
e 17 36 
e 17 20 
e 18 43 
e 18 32 
e 19 35 
e 19 31 
e 19 30 
e 20 33 
e 20 24 
e 20 22 
e 21 29 
e 21 27 
e 22 49 
e 22 27 
e 22 25 
e 23 44 
e 23 39 
e 23 36 
e 24 26 
e 25 49 
e 26 47 
e 27 47 
e 27 32 
e 28 50 
e 28 45 
e 29 37 
e 29 30 
e 30 39 
e 30 34 
e 32 47 
e 32 44 
e 33 49 
e 33 38 
e 34 49 
e 34 39 
e 35 39 
e 37 50 
e 38 49 
e 38 40 
e 39 49 
e 41 48 
e 41 45 
e 41 42 
e 45 46 
